networks/zoo_147_1081/zoo_147_1081-lower.txt
Number of groups: 60
Flow 1: {1 51 0} {51 30 0} {30 25 0} {25 2 0} {2 76 0} 
Flow 2: {2 62 0} {62 3 0} {3 77 0} 
Flow 3: {1 36 0} {36 4 0} {4 78 0} 
Flow 4: {3 41 0} {41 5 0} {5 79 0} 
Flow 5: {41 6 0} {6 80 0} 
Flow 6: {51 40 0} {40 9 0} {9 83 0} 
Flow 7: {30 10 0} {10 84 0} 
Flow 8: {41 12 0} {12 86 0} 
Flow 9: {23 13 0} {13 87 0} 
Flow 9: {71 22 0} {22 23 0} {36 71 0} Flow 10: {25 14 0} {14 88 0} 
Flow 11: {9 15 0} {15 89 0} 
Flow 12: {2 16 0} {16 90 0} 
Flow 13: {15 43 0} {43 18 0} {18 17 0} {17 91 0} 
Flow 14: {18 92 0} 
Flow 15: {4 70 0} {70 67 0} {67 50 0} {50 19 0} {19 93 0} 
Flow 16: {35 21 0} {21 20 0} {20 94 0} 
Flow 16: {23 35 0} Flow 17: {21 95 0} 
Flow 18: {25 99 0} 
Flow 19: {22 26 0} {26 100 0} 
Flow 20: {41 28 0} {28 102 0} 
Flow 21: {30 104 0} 
Flow 22: {36 31 0} {31 105 0} 
Flow 23: {30 32 0} {32 106 0} 
Flow 24: {20 64 0} {64 33 0} {33 107 0} 
Flow 25: {4 37 0} {37 111 0} 
Flow 26: {51 38 0} {38 112 0} 
Flow 27: {1 39 0} {39 113 0} 
Flow 28: {40 114 0} 
Flow 29: {41 115 0} 
Flow 30: {43 117 0} 
Flow 31: {30 24 0} {24 44 0} {44 46 0} {46 120 0} 
Flow 32: {44 45 0} {45 47 0} {47 121 0} 
Flow 33: {20 48 0} {48 122 0} 
Flow 34: {50 124 0} 
Flow 35: {51 125 0} 
Flow 36: {21 52 0} {52 126 0} 
Flow 37: {50 61 0} {61 54 0} {54 128 0} 
Flow 38: {51 55 0} {55 129 0} 
Flow 39: {51 66 0} {66 74 0} {74 73 0} {73 65 0} {65 59 0} {59 133 0} 
Flow 40: {61 135 0} 
Flow 41: {62 136 0} 
Flow 42: {19 63 0} {63 137 0} 
Flow 43: {64 138 0} 
Flow 44: {67 141 0} 
Flow 45: {70 144 0} 
Flow 46: {71 145 0} 
Flow 47: {71 72 0} {72 146 0} 
Flow 48: {73 147 0} 
Flow 49: {36 1 0} {1 75 0} 
Flow 49: {3 43 0} {43 15 0} {15 9 0} {9 31 0} {31 36 0} Flow 50: {3 62 0} {62 2 0} Flow 54: {16 13 0} Flow 57: {41 18 0} Flow 59: {13 23 0} Flow 61: {2 25 0} Flow 63: {25 30 0} Flow 67: {9 40 0} {40 51 0} Flow 71: {43 46 0} Flow 72: {43 34 0} {34 47 0} Flow 86: {4 36 0} Flow 88: {31 9 0} {43 3 0} Flow 91: {13 16 0} Flow 104: {6 41 0} {41 3 0} Flow 127: {16 2 0} Flow 129: {23 22 0} {22 71 0} {71 36 0} Flow 132: {71 70 0} Flow 139: {14 25 0} Flow 140: {30 51 0} {66 71 0} Flow 162: {20 21 0} {21 35 0} {35 23 0} Flow 170: {56 29 0} {29 63 0} {63 19 0} {48 56 0} Flow 173: {71 37 0} Flow 174: {71 66 0} {66 51 0} Flow 180: {19 50 0} Flow 183: {19 61 0} Flow 186: {50 67 0} Flow 243: {24 30 0} {51 1 0} Flow 245: {46 43 0} Flow 308: {23 26 0} Flow 335: {26 22 0} Flow 336: {26 23 0} Flow 354: {27 24 0} Flow 355: {27 30 0} Flow 361: {67 70 0} {70 4 0} Flow 362: {29 56 0} {56 52 0} {52 21 0} Flow 372: {56 48 0} {48 20 0} Flow 376: {70 71 0} Flow 393: {48 64 0} Flow 417: {23 97 0} 
Flow 424: {35 109 0} 
Flow 449: {33 64 0} {64 20 0} Flow 457: {34 43 0} Flow 472: {46 44 0} {44 24 0} Flow 494: {37 4 0} Flow 495: {37 71 0} Flow 527: {38 51 0} Flow 612: {42 41 0} Flow 614: {42 18 0} {18 43 0} Flow 688: {45 44 0} Flow 697: {49 30 0} Flow 717: {63 29 0} Flow 740: {52 56 0} Flow 743: {54 61 0} {61 50 0} Flow 746: {61 19 0} Flow 757: {58 65 0} {65 73 0} {73 74 0} {74 66 0} Flow 839: {64 48 0} Flow 913: {69 71 0} Flow 916: {69 68 0} {68 70 0} Flow 957: {13 7 0} {7 81 0} 
Flow 971: {24 98 0} 
Flow 974: {30 27 0} {27 101 0} 
Flow 981: {36 110 0} 
Flow 996: {51 57 0} {57 131 0} 
Flow 1002: {65 139 0} 
Flow 1004: {70 68 0} {68 142 0} 
Flow 1015: {41 8 0} {8 82 0} 
Flow 1018: {41 11 0} {11 85 0} 
Flow 1063: {71 69 0} Time taken running everything: 0 seconds
